30   435
130
66 88 96 35 33 92 94 111 70 54 120 65 96 33 66 85 67 61 103 105 62 52 117 49 83 105 93 39 93 1 2 247
1 3 171
1 4 44
1 5 37
1 6 279
1 7 135
1 8 111
1 9 159
1 10 21
1 11 263
1 12 63
1 13 82
1 14 106
1 15 11
1 16 211
1 17 64
1 18 86
1 19 24
1 20 156
1 21 24
1 22 68
1 23 157
1 24 28
1 25 105
1 26 41
1 27 288
1 28 159
1 29 164
1 30 167
2 3 65
2 4 20
2 5 56
2 6 183
2 7 194
2 8 123
2 9 181
2 10 43
2 11 77
2 12 136
2 13 35
2 14 161
2 15 53
2 16 138
2 17 44
2 18 248
2 19 84
2 20 245
2 21 242
2 22 51
2 23 209
2 24 191
2 25 276
2 26 221
2 27 86
2 28 139
2 29 132
2 30 274
3 4 64
3 5 30
3 6 111
3 7 163
3 8 121
3 9 145
3 10 196
3 11 112
3 12 252
3 13 191
3 14 266
3 15 126
3 16 108
3 17 105
3 18 254
3 19 64
3 20 63
3 21 121
3 22 267
3 23 298
3 24 296
3 25 53
3 26 277
3 27 267
3 28 94
3 29 295
3 30 210
4 5 196
4 6 26
4 7 206
4 8 214
4 9 256
4 10 94
4 11 139
4 12 125
4 13 268
4 14 166
4 15 38
4 16 210
4 17 258
4 18 67
4 19 107
4 20 68
4 21 196
4 22 25
4 23 282
4 24 239
4 25 31
4 26 138
4 27 191
4 28 31
4 29 121
4 30 74
5 6 163
5 7 20
5 8 176
5 9 130
5 10 185
5 11 158
5 12 94
5 13 196
5 14 29
5 15 76
5 16 88
5 17 216
5 18 271
5 19 240
5 20 126
5 21 22
5 22 189
5 23 112
5 24 192
5 25 36
5 26 35
5 27 25
5 28 28
5 29 267
5 30 185
6 7 209
6 8 125
6 9 56
6 10 276
6 11 143
6 12 251
6 13 137
6 14 133
6 15 151
6 16 243
6 17 34
6 18 61
6 19 160
6 20 191
6 21 39
6 22 42
6 23 196
6 24 216
6 25 24
6 26 97
6 27 153
6 28 119
6 29 169
6 30 84
7 8 67
7 9 276
7 10 65
7 11 266
7 12 120
7 13 42
7 14 13
7 15 287
7 16 278
7 17 147
7 18 194
7 19 103
7 20 218
7 21 239
7 22 42
7 23 296
7 24 187
7 25 261
7 26 159
7 27 74
7 28 235
7 29 81
7 30 279
8 9 245
8 10 108
8 11 153
8 12 59
8 13 300
8 14 120
8 15 286
8 16 188
8 17 69
8 18 33
8 19 111
8 20 277
8 21 51
8 22 62
8 23 244
8 24 149
8 25 32
8 26 64
8 27 123
8 28 251
8 29 178
8 30 199
9 10 41
9 11 156
9 12 38
9 13 293
9 14 16
9 15 185
9 16 17
9 17 258
9 18 299
9 19 183
9 20 177
9 21 103
9 22 298
9 23 199
9 24 22
9 25 13
9 26 133
9 27 91
9 28 129
9 29 277
9 30 57
10 11 173
10 12 39
10 13 140
10 14 226
10 15 115
10 16 61
10 17 36
10 18 58
10 19 157
10 20 110
10 21 201
10 22 210
10 23 265
10 24 183
10 25 273
10 26 180
10 27 85
10 28 245
10 29 199
10 30 181
11 12 176
11 13 203
11 14 35
11 15 63
11 16 11
11 17 83
11 18 241
11 19 26
11 20 84
11 21 71
11 22 273
11 23 90
11 24 80
11 25 46
11 26 209
11 27 218
11 28 183
11 29 253
11 30 215
12 13 178
12 14 183
12 15 119
12 16 191
12 17 147
12 18 160
12 19 121
12 20 270
12 21 10
12 22 139
12 23 203
12 24 44
12 25 202
12 26 100
12 27 56
12 28 171
12 29 201
12 30 169
13 14 245
13 15 20
13 16 119
13 17 283
13 18 104
13 19 64
13 20 256
13 21 174
13 22 151
13 23 159
13 24 283
13 25 243
13 26 23
13 27 197
13 28 89
13 29 220
13 30 167
14 15 133
14 16 159
14 17 238
14 18 159
14 19 188
14 20 88
14 21 149
14 22 175
14 23 28
14 24 45
14 25 146
14 26 222
14 27 29
14 28 214
14 29 177
14 30 277
15 16 34
15 17 239
15 18 112
15 19 75
15 20 219
15 21 184
15 22 146
15 23 257
15 24 66
15 25 151
15 26 252
15 27 259
15 28 114
15 29 283
15 30 130
16 17 192
16 18 39
16 19 20
16 20 136
16 21 178
16 22 188
16 23 106
16 24 296
16 25 23
16 26 155
16 27 201
16 28 176
16 29 18
16 30 109
17 18 286
17 19 188
17 20 277
17 21 174
17 22 145
17 23 186
17 24 89
17 25 257
17 26 229
17 27 264
17 28 122
17 29 217
17 30 40
18 19 94
18 20 223
18 21 273
18 22 127
18 23 268
18 24 95
18 25 266
18 26 175
18 27 282
18 28 120
18 29 223
18 30 167
19 20 282
19 21 51
19 22 250
19 23 63
19 24 80
19 25 49
19 26 270
19 27 232
19 28 162
19 29 123
19 30 137
20 21 58
20 22 80
20 23 297
20 24 106
20 25 17
20 26 192
20 27 141
20 28 62
20 29 64
20 30 205
21 22 135
21 23 133
21 24 138
21 25 159
21 26 114
21 27 252
21 28 218
21 29 18
21 30 297
22 23 62
22 24 165
22 25 88
22 26 66
22 27 178
22 28 227
22 29 198
22 30 231
23 24 136
23 25 220
23 26 23
23 27 242
23 28 225
23 29 169
23 30 101
24 25 39
24 26 200
24 27 29
24 28 269
24 29 45
24 30 39
25 26 202
25 27 213
25 28 115
25 29 179
25 30 88
26 27 258
26 28 112
26 29 184
26 30 250
27 28 161
27 29 279
27 30 61
28 29 80
28 30 161
29 30 288
